row=9;
column=9;

Board=[|0,6,0,0,1,0,5,7,3|7,0,8,0,0,0,1,4,0|0,0,0,9,0,0,6,2,0|0,0,0,0,0,1,0,0,6|1,9,0,3,0,8,0,0,0|3,7,6,2,0,9,0,8,0|8,1,7,0,0,0,0,0,0|5,0,0,0,7,3,8,0,4|6,0,0,0,8,0,9,0,0|];
